70
1 0 2
2 0 4
2 1 5
3 0 2
3 1 3
3 2 4
4 0 5
4 1 4
4 2 4
4 3 5
5 0 2
5 1 5
5 2 2
5 3 5
5 4 3
6 0 3
6 1 1
6 2 1
6 3 4
6 4 2
6 5 5
7 0 5
7 1 1
7 2 4
7 3 5
7 4 1
7 5 3
7 6 3
8 0 4
8 1 4
8 2 5
8 3 1
8 4 3
8 5 2
8 6 5
8 7 5
9 0 3
9 1 1
9 2 5
9 3 5
9 4 2
9 5 1
9 6 3
9 7 2
9 8 4
10 0 3
10 1 5
10 2 1
10 3 1
10 4 4
10 5 5
10 6 5
10 7 4
10 8 2
10 9 4
11 0 2
11 1 3
11 2 1
11 3 1
11 4 2
11 5 5
11 6 4
11 7 4
11 8 4
11 9 5
11 10 4
12 0 1
12 1 3
12 2 1
12 3 5
12 4 1
12 5 3
12 6 2
12 7 3
12 8 3
12 9 4
12 10 1
12 11 5
13 0 2
13 1 2
13 2 4
13 3 5
13 4 4
13 5 3
13 6 4
13 7 4
13 8 4
13 9 1
13 10 4
13 11 1
13 12 3
14 0 4
14 1 3
14 2 5
14 3 2
14 4 4
14 5 5
14 6 3
14 7 4
14 8 4
14 9 4
14 10 3
14 11 5
14 12 1
14 13 1
15 0 5
15 1 5
15 2 2
15 3 5
15 4 5
15 5 2
15 6 5
15 7 2
15 8 5
15 9 5
15 10 1
15 11 5
15 12 1
15 13 2
15 14 2
16 0 1
16 1 3
16 2 5
16 3 5
16 4 3
16 5 3
16 6 5
16 7 3
16 8 1
16 9 4
16 10 1
16 11 4
16 12 2
16 13 3
16 14 3
16 15 2
17 0 1
17 1 4
17 2 2
17 3 1
17 4 4
17 5 2
17 6 2
17 7 1
17 8 2
17 9 1
17 10 5
17 11 5
17 12 1
17 13 5
17 14 5
17 15 1
17 16 2
18 0 5
18 1 5
18 2 4
18 3 4
18 4 3
18 5 3
18 6 3
18 7 2
18 8 2
18 9 5
18 10 4
18 11 4
18 12 5
18 13 1
18 14 1
18 15 5
18 16 3
18 17 4
19 0 2
19 1 3
19 2 2
19 3 5
19 4 4
19 5 4
19 6 4
19 7 1
19 8 3
19 9 5
19 10 2
19 11 4
19 12 5
19 13 3
19 14 1
19 15 5
19 16 5
19 17 3
19 18 2
20 0 4
20 1 3
20 2 5
20 3 5
20 4 2
20 5 2
20 6 1
20 7 3
20 8 5
20 9 3
20 10 3
20 11 4
20 12 2
20 13 4
20 14 5
20 15 3
20 16 5
20 17 4
20 18 3
20 19 2
21 0 5
21 1 2
21 2 3
21 3 1
21 4 1
21 5 5
21 6 3
21 7 1
21 8 1
21 9 2
21 10 5
21 11 2
21 12 1
21 13 4
21 14 4
21 15 2
21 16 2
21 17 3
21 18 3
21 19 3
21 20 2
22 0 2
22 1 4
22 2 5
22 3 3
22 4 5
22 5 5
22 6 4
22 7 5
22 8 3
22 9 5
22 10 2
22 11 2
22 12 5
22 13 2
22 14 5
22 15 4
22 16 4
22 17 2
22 18 2
22 19 4
22 20 5
22 21 4
23 0 1
23 1 2
23 2 3
23 3 5
23 4 5
23 5 1
23 6 1
23 7 4
23 8 3
23 9 2
23 10 5
23 11 4
23 12 4
23 13 2
23 14 1
23 15 1
23 16 3
23 17 5
23 18 4
23 19 5
23 20 1
23 21 4
23 22 3
24 0 4
24 1 4
24 2 1
24 3 2
24 4 3
24 5 2
24 6 4
24 7 5
24 8 3
24 9 2
24 10 3
24 11 5
24 12 4
24 13 3
24 14 1
24 15 4
24 16 1
24 17 5
24 18 2
24 19 4
24 20 5
24 21 5
24 22 2
24 23 1
25 0 5
25 1 1
25 2 5
25 3 1
25 4 5
25 5 3
25 6 2
25 7 3
25 8 2
25 9 4
25 10 2
25 11 2
25 12 4
25 13 4
25 14 3
25 15 3
25 16 4
25 17 3
25 18 3
25 19 1
25 20 3
25 21 5
25 22 4
25 23 5
25 24 2
26 0 4
26 1 5
26 2 2
26 3 2
26 4 3
26 5 4
26 6 1
26 7 4
26 8 3
26 9 3
26 10 1
26 11 2
26 12 3
26 13 4
26 14 4
26 15 2
26 16 2
26 17 4
26 18 3
26 19 5
26 20 1
26 21 5
26 22 1
26 23 5
26 24 5
26 25 3
27 0 5
27 1 5
27 2 1
27 3 2
27 4 3
27 5 4
27 6 1
27 7 2
27 8 4
27 9 1
27 10 2
27 11 5
27 12 1
27 13 1
27 14 5
27 15 5
27 16 2
27 17 1
27 18 3
27 19 4
27 20 2
27 21 4
27 22 2
27 23 5
27 24 5
27 25 2
27 26 1
28 0 5
28 1 1
28 2 3
28 3 1
28 4 2
28 5 3
28 6 1
28 7 1
28 8 5
28 9 1
28 10 5
28 11 2
28 12 1
28 13 1
28 14 2
28 15 4
28 16 3
28 17 5
28 18 1
28 19 5
28 20 3
28 21 1
28 22 2
28 23 5
28 24 4
28 25 4
28 26 3
28 27 5
29 0 3
29 1 5
29 2 3
29 3 4
29 4 5
29 5 4
29 6 1
29 7 4
29 8 3
29 9 1
29 10 1
29 11 1
29 12 5
29 13 1
29 14 2
29 15 1
29 16 2
29 17 5
29 18 2
29 19 4
29 20 4
29 21 3
29 22 3
29 23 3
29 24 4
29 25 1
29 26 4
29 27 5
29 28 4
30 0 1
30 1 4
30 2 5
30 3 1
30 4 1
30 5 3
30 6 2
30 7 5
30 8 5
30 9 4
30 10 4
30 11 1
30 12 5
30 13 3
30 14 4
30 15 5
30 16 3
30 17 1
30 18 1
30 19 5
30 20 5
30 21 5
30 22 3
30 23 1
30 24 2
30 25 3
30 26 5
30 27 5
30 28 4
30 29 3
31 0 2
31 1 5
31 2 5
31 3 2
31 4 3
31 5 2
31 6 2
31 7 2
31 8 1
31 9 4
31 10 3
31 11 5
31 12 3
31 13 5
31 14 4
31 15 1
31 16 3
31 17 1
31 18 2
31 19 1
31 20 3
31 21 4
31 22 5
31 23 2
31 24 2
31 25 5
31 26 2
31 27 4
31 28 5
31 29 1
31 30 3
32 0 3
32 1 3
32 2 1
32 3 3
32 4 4
32 5 5
32 6 2
32 7 1
32 8 4
32 9 2
32 10 5
32 11 1
32 12 3
32 13 5
32 14 4
32 15 5
32 16 2
32 17 5
32 18 3
32 19 1
32 20 5
32 21 5
32 22 3
32 23 5
32 24 5
32 25 5
32 26 1
32 27 4
32 28 4
32 29 1
32 30 3
32 31 2
33 0 5
33 1 1
33 2 5
33 3 4
33 4 1
33 5 2
33 6 2
33 7 3
33 8 4
33 9 2
33 10 2
33 11 1
33 12 5
33 13 3
33 14 5
33 15 3
33 16 5
33 17 2
33 18 1
33 19 2
33 20 3
33 21 2
33 22 1
33 23 2
33 24 3
33 25 4
33 26 2
33 27 4
33 28 4
33 29 2
33 30 5
33 31 5
33 32 5
34 0 2
34 1 4
34 2 4
34 3 2
34 4 2
34 5 1
34 6 4
34 7 1
34 8 2
34 9 5
34 10 4
34 11 5
34 12 1
34 13 2
34 14 3
34 15 3
34 16 3
34 17 4
34 18 2
34 19 1
34 20 3
34 21 2
34 22 4
34 23 2
34 24 3
34 25 5
34 26 3
34 27 5
34 28 5
34 29 1
34 30 3
34 31 5
34 32 3
34 33 1
35 0 2
35 1 2
35 2 3
35 3 3
35 4 3
35 5 4
35 6 4
35 7 2
35 8 3
35 9 4
35 10 2
35 11 5
35 12 4
35 13 2
35 14 2
35 15 4
35 16 2
35 17 4
35 18 5
35 19 1
35 20 4
35 21 2
35 22 2
35 23 4
35 24 4
35 25 2
35 26 4
35 27 2
35 28 2
35 29 3
35 30 1
35 31 1
35 32 3
35 33 5
35 34 4
36 0 2
36 1 3
36 2 2
36 3 1
36 4 3
36 5 2
36 6 2
36 7 5
36 8 1
36 9 1
36 10 5
36 11 3
36 12 2
36 13 5
36 14 1
36 15 2
36 16 3
36 17 4
36 18 4
36 19 4
36 20 4
36 21 5
36 22 4
36 23 4
36 24 3
36 25 1
36 26 2
36 27 3
36 28 2
36 29 1
36 30 4
36 31 4
36 32 4
36 33 4
36 34 5
36 35 5
37 0 4
37 1 4
37 2 2
37 3 3
37 4 2
37 5 4
37 6 3
37 7 3
37 8 2
37 9 2
37 10 2
37 11 5
37 12 1
37 13 2
37 14 3
37 15 5
37 16 4
37 17 2
37 18 3
37 19 1
37 20 2
37 21 4
37 22 3
37 23 4
37 24 2
37 25 1
37 26 4
37 27 2
37 28 2
37 29 5
37 30 3
37 31 4
37 32 4
37 33 1
37 34 5
37 35 4
37 36 1
38 0 2
38 1 4
38 2 4
38 3 3
38 4 3
38 5 4
38 6 1
38 7 4
38 8 2
38 9 5
38 10 4
38 11 5
38 12 5
38 13 5
38 14 2
38 15 1
38 16 2
38 17 1
38 18 5
38 19 2
38 20 3
38 21 5
38 22 1
38 23 1
38 24 4
38 25 5
38 26 1
38 27 1
38 28 1
38 29 4
38 30 2
38 31 3
38 32 3
38 33 5
38 34 1
38 35 4
38 36 1
38 37 1
39 0 5
39 1 4
39 2 1
39 3 1
39 4 4
39 5 2
39 6 5
39 7 1
39 8 3
39 9 1
39 10 4
39 11 1
39 12 5
39 13 4
39 14 4
39 15 3
39 16 2
39 17 3
39 18 5
39 19 5
39 20 3
39 21 1
39 22 3
39 23 4
39 24 4
39 25 4
39 26 3
39 27 5
39 28 1
39 29 1
39 30 5
39 31 1
39 32 3
39 33 5
39 34 4
39 35 2
39 36 2
39 37 4
39 38 4
40 0 5
40 1 1
40 2 5
40 3 3
40 4 5
40 5 1
40 6 4
40 7 3
40 8 1
40 9 2
40 10 2
40 11 3
40 12 4
40 13 2
40 14 4
40 15 1
40 16 5
40 17 4
40 18 4
40 19 1
40 20 3
40 21 1
40 22 1
40 23 2
40 24 1
40 25 1
40 26 2
40 27 5
40 28 2
40 29 4
40 30 5
40 31 2
40 32 3
40 33 2
40 34 3
40 35 4
40 36 2
40 37 1
40 38 4
40 39 4
41 0 3
41 1 4
41 2 1
41 3 2
41 4 1
41 5 5
41 6 5
41 7 5
41 8 3
41 9 2
41 10 5
41 11 5
41 12 4
41 13 1
41 14 1
41 15 4
41 16 5
41 17 2
41 18 2
41 19 4
41 20 1
41 21 1
41 22 2
41 23 3
41 24 1
41 25 3
41 26 1
41 27 4
41 28 2
41 29 1
41 30 4
41 31 3
41 32 1
41 33 3
41 34 5
41 35 5
41 36 3
41 37 3
41 38 5
41 39 4
41 40 1
42 0 3
42 1 4
42 2 2
42 3 5
42 4 1
42 5 3
42 6 4
42 7 2
42 8 3
42 9 4
42 10 5
42 11 3
42 12 3
42 13 3
42 14 2
42 15 1
42 16 1
42 17 3
42 18 1
42 19 5
42 20 2
42 21 1
42 22 2
42 23 5
42 24 1
42 25 2
42 26 3
42 27 4
42 28 4
42 29 1
42 30 1
42 31 4
42 32 5
42 33 2
42 34 5
42 35 3
42 36 5
42 37 4
42 38 5
42 39 1
42 40 1
42 41 4
43 0 4
43 1 1
43 2 2
43 3 1
43 4 2
43 5 4
43 6 3
43 7 3
43 8 3
43 9 4
43 10 1
43 11 2
43 12 2
43 13 3
43 14 1
43 15 5
43 16 5
43 17 5
43 18 2
43 19 5
43 20 3
43 21 4
43 22 4
43 23 3
43 24 4
43 25 3
43 26 2
43 27 3
43 28 1
43 29 4
43 30 1
43 31 1
43 32 1
43 33 1
43 34 5
43 35 3
43 36 5
43 37 3
43 38 4
43 39 5
43 40 4
43 41 4
43 42 2
44 0 1
44 1 4
44 2 3
44 3 3
44 4 1
44 5 1
44 6 3
44 7 2
44 8 2
44 9 4
44 10 5
44 11 4
44 12 4
44 13 2
44 14 4
44 15 2
44 16 4
44 17 4
44 18 1
44 19 2
44 20 5
44 21 5
44 22 2
44 23 1
44 24 1
44 25 5
44 26 5
44 27 2
44 28 2
44 29 2
44 30 2
44 31 1
44 32 2
44 33 4
44 34 3
44 35 3
44 36 2
44 37 3
44 38 5
44 39 5
44 40 5
44 41 5
44 42 1
44 43 2
45 0 1
45 1 5
45 2 1
45 3 2
45 4 3
45 5 1
45 6 5
45 7 1
45 8 5
45 9 5
45 10 1
45 11 3
45 12 4
45 13 5
45 14 2
45 15 5
45 16 3
45 17 3
45 18 5
45 19 4
45 20 3
45 21 5
45 22 4
45 23 2
45 24 5
45 25 4
45 26 3
45 27 1
45 28 2
45 29 2
45 30 1
45 31 4
45 32 5
45 33 2
45 34 5
45 35 3
45 36 1
45 37 5
45 38 5
45 39 3
45 40 1
45 41 1
45 42 2
45 43 4
45 44 1
46 0 4
46 1 5
46 2 5
46 3 5
46 4 3
46 5 1
46 6 3
46 7 1
46 8 4
46 9 4
46 10 5
46 11 4
46 12 2
46 13 4
46 14 1
46 15 4
46 16 5
46 17 5
46 18 2
46 19 4
46 20 2
46 21 2
46 22 3
46 23 2
46 24 2
46 25 4
46 26 5
46 27 4
46 28 4
46 29 4
46 30 3
46 31 2
46 32 2
46 33 2
46 34 5
46 35 4
46 36 3
46 37 2
46 38 1
46 39 1
46 40 1
46 41 2
46 42 3
46 43 1
46 44 1
46 45 4
47 0 4
47 1 4
47 2 1
47 3 2
47 4 1
47 5 4
47 6 3
47 7 4
47 8 2
47 9 4
47 10 4
47 11 3
47 12 5
47 13 1
47 14 4
47 15 5
47 16 2
47 17 4
47 18 1
47 19 1
47 20 1
47 21 4
47 22 2
47 23 1
47 24 5
47 25 1
47 26 3
47 27 1
47 28 5
47 29 3
47 30 5
47 31 5
47 32 2
47 33 2
47 34 4
47 35 1
47 36 2
47 37 5
47 38 5
47 39 4
47 40 5
47 41 2
47 42 5
47 43 3
47 44 2
47 45 5
47 46 1
48 0 5
48 1 3
48 2 1
48 3 4
48 4 1
48 5 2
48 6 5
48 7 4
48 8 4
48 9 5
48 10 4
48 11 2
48 12 2
48 13 2
48 14 3
48 15 1
48 16 3
48 17 3
48 18 3
48 19 3
48 20 2
48 21 5
48 22 5
48 23 2
48 24 5
48 25 4
48 26 5
48 27 2
48 28 5
48 29 3
48 30 2
48 31 4
48 32 2
48 33 2
48 34 4
48 35 3
48 36 4
48 37 3
48 38 1
48 39 1
48 40 2
48 41 1
48 42 3
48 43 5
48 44 3
48 45 2
48 46 3
48 47 4
49 0 5
49 1 5
49 2 3
49 3 3
49 4 4
49 5 3
49 6 2
49 7 1
49 8 3
49 9 5
49 10 2
49 11 2
49 12 5
49 13 2
49 14 4
49 15 1
49 16 3
49 17 4
49 18 4
49 19 5
49 20 2
49 21 2
49 22 5
49 23 4
49 24 5
49 25 5
49 26 3
49 27 1
49 28 1
49 29 1
49 30 1
49 31 1
49 32 5
49 33 4
49 34 3
49 35 2
49 36 2
49 37 2
49 38 5
49 39 3
49 40 1
49 41 3
49 42 3
49 43 2
49 44 5
49 45 5
49 46 3
49 47 1
49 48 3
50 0 5
50 1 1
50 2 1
50 3 1
50 4 3
50 5 5
50 6 5
50 7 5
50 8 4
50 9 4
50 10 1
50 11 4
50 12 4
50 13 2
50 14 3
50 15 2
50 16 2
50 17 4
50 18 4
50 19 3
50 20 3
50 21 4
50 22 3
50 23 3
50 24 3
50 25 1
50 26 1
50 27 2
50 28 1
50 29 5
50 30 2
50 31 1
50 32 1
50 33 2
50 34 3
50 35 5
50 36 5
50 37 5
50 38 4
50 39 5
50 40 5
50 41 3
50 42 2
50 43 3
50 44 4
50 45 3
50 46 4
50 47 4
50 48 5
50 49 3
51 0 3
51 1 5
51 2 1
51 3 3
51 4 2
51 5 3
51 6 1
51 7 4
51 8 1
51 9 1
51 10 4
51 11 3
51 12 4
51 13 2
51 14 5
51 15 5
51 16 3
51 17 3
51 18 4
51 19 4
51 20 5
51 21 4
51 22 2
51 23 3
51 24 4
51 25 3
51 26 3
51 27 4
51 28 1
51 29 3
51 30 1
51 31 3
51 32 5
51 33 2
51 34 5
51 35 2
51 36 1
51 37 5
51 38 5
51 39 1
51 40 3
51 41 1
51 42 5
51 43 3
51 44 5
51 45 4
51 46 4
51 47 1
51 48 2
51 49 2
51 50 5
52 0 5
52 1 4
52 2 2
52 3 1
52 4 2
52 5 5
52 6 2
52 7 3
52 8 3
52 9 2
52 10 2
52 11 2
52 12 1
52 13 2
52 14 5
52 15 1
52 16 4
52 17 4
52 18 5
52 19 2
52 20 1
52 21 4
52 22 2
52 23 5
52 24 4
52 25 1
52 26 1
52 27 3
52 28 2
52 29 4
52 30 5
52 31 1
52 32 1
52 33 5
52 34 1
52 35 4
52 36 1
52 37 4
52 38 5
52 39 4
52 40 3
52 41 5
52 42 5
52 43 3
52 44 2
52 45 2
52 46 1
52 47 3
52 48 1
52 49 3
52 50 5
52 51 5
53 0 5
53 1 5
53 2 3
53 3 4
53 4 5
53 5 1
53 6 3
53 7 3
53 8 2
53 9 5
53 10 3
53 11 2
53 12 5
53 13 4
53 14 1
53 15 3
53 16 5
53 17 1
53 18 1
53 19 4
53 20 2
53 21 1
53 22 3
53 23 2
53 24 3
53 25 5
53 26 3
53 27 2
53 28 1
53 29 1
53 30 3
53 31 5
53 32 1
53 33 5
53 34 1
53 35 3
53 36 1
53 37 3
53 38 5
53 39 2
53 40 3
53 41 1
53 42 5
53 43 1
53 44 4
53 45 3
53 46 5
53 47 5
53 48 5
53 49 4
53 50 4
53 51 4
53 52 3
54 0 1
54 1 4
54 2 3
54 3 2
54 4 5
54 5 2
54 6 5
54 7 4
54 8 1
54 9 4
54 10 2
54 11 2
54 12 5
54 13 3
54 14 1
54 15 4
54 16 2
54 17 4
54 18 5
54 19 1
54 20 4
54 21 3
54 22 5
54 23 3
54 24 3
54 25 3
54 26 4
54 27 1
54 28 4
54 29 3
54 30 2
54 31 1
54 32 2
54 33 4
54 34 5
54 35 5
54 36 1
54 37 1
54 38 3
54 39 2
54 40 5
54 41 3
54 42 1
54 43 3
54 44 3
54 45 4
54 46 1
54 47 5
54 48 3
54 49 5
54 50 3
54 51 5
54 52 4
54 53 5
55 0 3
55 1 1
55 2 3
55 3 3
55 4 4
55 5 1
55 6 1
55 7 2
55 8 5
55 9 3
55 10 4
55 11 4
55 12 1
55 13 3
55 14 4
55 15 2
55 16 3
55 17 3
55 18 2
55 19 5
55 20 2
55 21 5
55 22 5
55 23 1
55 24 4
55 25 5
55 26 4
55 27 2
55 28 5
55 29 4
55 30 3
55 31 1
55 32 5
55 33 5
55 34 2
55 35 5
55 36 1
55 37 2
55 38 5
55 39 3
55 40 2
55 41 3
55 42 5
55 43 2
55 44 4
55 45 1
55 46 4
55 47 5
55 48 2
55 49 4
55 50 1
55 51 2
55 52 1
55 53 3
55 54 3
56 0 5
56 1 2
56 2 2
56 3 5
56 4 3
56 5 3
56 6 3
56 7 3
56 8 4
56 9 1
56 10 2
56 11 1
56 12 3
56 13 4
56 14 4
56 15 4
56 16 5
56 17 2
56 18 5
56 19 2
56 20 5
56 21 5
56 22 1
56 23 4
56 24 4
56 25 2
56 26 3
56 27 2
56 28 4
56 29 3
56 30 2
56 31 5
56 32 4
56 33 2
56 34 1
56 35 2
56 36 4
56 37 1
56 38 5
56 39 3
56 40 2
56 41 5
56 42 3
56 43 2
56 44 2
56 45 5
56 46 2
56 47 1
56 48 2
56 49 1
56 50 5
56 51 5
56 52 4
56 53 3
56 54 3
56 55 4
57 0 4
57 1 3
57 2 3
57 3 2
57 4 2
57 5 5
57 6 1
57 7 5
57 8 3
57 9 1
57 10 1
57 11 2
57 12 1
57 13 1
57 14 3
57 15 1
57 16 2
57 17 5
57 18 1
57 19 5
57 20 5
57 21 2
57 22 5
57 23 1
57 24 3
57 25 2
57 26 3
57 27 5
57 28 4
57 29 2
57 30 5
57 31 2
57 32 5
57 33 2
57 34 4
57 35 2
57 36 5
57 37 2
57 38 2
57 39 4
57 40 4
57 41 1
57 42 3
57 43 5
57 44 3
57 45 2
57 46 1
57 47 1
57 48 4
57 49 2
57 50 2
57 51 3
57 52 1
57 53 2
57 54 3
57 55 5
57 56 1
58 0 3
58 1 4
58 2 5
58 3 3
58 4 5
58 5 3
58 6 1
58 7 1
58 8 5
58 9 2
58 10 1
58 11 1
58 12 1
58 13 2
58 14 1
58 15 1
58 16 3
58 17 3
58 18 5
58 19 4
58 20 5
58 21 5
58 22 5
58 23 5
58 24 1
58 25 3
58 26 3
58 27 1
58 28 1
58 29 5
58 30 5
58 31 2
58 32 4
58 33 2
58 34 1
58 35 2
58 36 4
58 37 5
58 38 4
58 39 2
58 40 5
58 41 2
58 42 5
58 43 2
58 44 3
58 45 3
58 46 4
58 47 1
58 48 4
58 49 1
58 50 1
58 51 4
58 52 3
58 53 3
58 54 1
58 55 4
58 56 5
58 57 4
59 0 5
59 1 4
59 2 2
59 3 2
59 4 1
59 5 2
59 6 5
59 7 1
59 8 1
59 9 4
59 10 4
59 11 4
59 12 3
59 13 1
59 14 3
59 15 3
59 16 2
59 17 5
59 18 3
59 19 1
59 20 2
59 21 4
59 22 4
59 23 5
59 24 3
59 25 2
59 26 5
59 27 4
59 28 3
59 29 5
59 30 2
59 31 5
59 32 5
59 33 3
59 34 1
59 35 1
59 36 1
59 37 3
59 38 3
59 39 1
59 40 3
59 41 1
59 42 1
59 43 2
59 44 4
59 45 5
59 46 3
59 47 4
59 48 1
59 49 2
59 50 5
59 51 3
59 52 5
59 53 4
59 54 2
59 55 3
59 56 1
59 57 5
59 58 5
60 0 2
60 1 3
60 2 2
60 3 5
60 4 3
60 5 4
60 6 2
60 7 2
60 8 5
60 9 4
60 10 2
60 11 1
60 12 2
60 13 5
60 14 2
60 15 1
60 16 1
60 17 2
60 18 1
60 19 3
60 20 5
60 21 2
60 22 5
60 23 3
60 24 3
60 25 2
60 26 1
60 27 4
60 28 4
60 29 4
60 30 2
60 31 3
60 32 1
60 33 3
60 34 1
60 35 5
60 36 3
60 37 2
60 38 2
60 39 5
60 40 4
60 41 3
60 42 5
60 43 1
60 44 3
60 45 3
60 46 1
60 47 3
60 48 1
60 49 1
60 50 2
60 51 4
60 52 2
60 53 3
60 54 2
60 55 3
60 56 1
60 57 2
60 58 5
60 59 5
61 0 5
61 1 1
61 2 4
61 3 5
61 4 2
61 5 4
61 6 2
61 7 5
61 8 1
61 9 1
61 10 5
61 11 3
61 12 5
61 13 1
61 14 1
61 15 2
61 16 5
61 17 5
61 18 1
61 19 1
61 20 4
61 21 4
61 22 4
61 23 2
61 24 5
61 25 2
61 26 4
61 27 4
61 28 5
61 29 1
61 30 4
61 31 5
61 32 4
61 33 4
61 34 5
61 35 2
61 36 1
61 37 5
61 38 5
61 39 5
61 40 2
61 41 3
61 42 5
61 43 2
61 44 3
61 45 3
61 46 1
61 47 2
61 48 2
61 49 3
61 50 4
61 51 3
61 52 3
61 53 1
61 54 4
61 55 2
61 56 1
61 57 1
61 58 4
61 59 5
61 60 5
62 0 5
62 1 1
62 2 4
62 3 3
62 4 4
62 5 2
62 6 5
62 7 5
62 8 1
62 9 1
62 10 1
62 11 1
62 12 2
62 13 4
62 14 5
62 15 1
62 16 2
62 17 3
62 18 4
62 19 3
62 20 2
62 21 3
62 22 1
62 23 4
62 24 3
62 25 4
62 26 5
62 27 4
62 28 5
62 29 2
62 30 5
62 31 5
62 32 1
62 33 5
62 34 5
62 35 1
62 36 2
62 37 1
62 38 3
62 39 2
62 40 2
62 41 3
62 42 3
62 43 3
62 44 5
62 45 1
62 46 1
62 47 5
62 48 4
62 49 5
62 50 4
62 51 4
62 52 5
62 53 1
62 54 3
62 55 3
62 56 4
62 57 5
62 58 5
62 59 5
62 60 5
62 61 1
63 0 2
63 1 3
63 2 5
63 3 1
63 4 1
63 5 2
63 6 1
63 7 4
63 8 5
63 9 1
63 10 4
63 11 4
63 12 4
63 13 4
63 14 2
63 15 1
63 16 1
63 17 4
63 18 3
63 19 5
63 20 1
63 21 3
63 22 5
63 23 1
63 24 2
63 25 1
63 26 1
63 27 2
63 28 5
63 29 3
63 30 4
63 31 3
63 32 1
63 33 5
63 34 4
63 35 4
63 36 3
63 37 3
63 38 5
63 39 3
63 40 3
63 41 4
63 42 1
63 43 1
63 44 2
63 45 1
63 46 5
63 47 4
63 48 1
63 49 4
63 50 3
63 51 2
63 52 1
63 53 2
63 54 3
63 55 2
63 56 5
63 57 5
63 58 3
63 59 4
63 60 2
63 61 4
63 62 5
64 0 2
64 1 1
64 2 5
64 3 2
64 4 5
64 5 2
64 6 1
64 7 5
64 8 3
64 9 1
64 10 5
64 11 5
64 12 2
64 13 3
64 14 3
64 15 2
64 16 1
64 17 2
64 18 1
64 19 1
64 20 5
64 21 3
64 22 3
64 23 2
64 24 5
64 25 4
64 26 1
64 27 4
64 28 1
64 29 5
64 30 5
64 31 4
64 32 4
64 33 5
64 34 5
64 35 3
64 36 5
64 37 4
64 38 4
64 39 4
64 40 3
64 41 1
64 42 3
64 43 4
64 44 2
64 45 2
64 46 5
64 47 4
64 48 1
64 49 5
64 50 3
64 51 1
64 52 3
64 53 1
64 54 4
64 55 4
64 56 3
64 57 4
64 58 1
64 59 2
64 60 2
64 61 4
64 62 3
64 63 5
65 0 5
65 1 2
65 2 3
65 3 1
65 4 1
65 5 3
65 6 2
65 7 2
65 8 2
65 9 3
65 10 5
65 11 4
65 12 2
65 13 2
65 14 4
65 15 5
65 16 4
65 17 1
65 18 4
65 19 3
65 20 2
65 21 1
65 22 3
65 23 1
65 24 5
65 25 3
65 26 4
65 27 2
65 28 4
65 29 3
65 30 1
65 31 5
65 32 5
65 33 2
65 34 5
65 35 1
65 36 4
65 37 5
65 38 4
65 39 3
65 40 3
65 41 5
65 42 1
65 43 1
65 44 1
65 45 2
65 46 1
65 47 1
65 48 3
65 49 3
65 50 3
65 51 1
65 52 1
65 53 1
65 54 2
65 55 2
65 56 4
65 57 4
65 58 3
65 59 5
65 60 3
65 61 2
65 62 1
65 63 5
65 64 1
66 0 2
66 1 2
66 2 4
66 3 3
66 4 3
66 5 3
66 6 5
66 7 1
66 8 4
66 9 4
66 10 1
66 11 3
66 12 5
66 13 3
66 14 2
66 15 4
66 16 4
66 17 3
66 18 1
66 19 2
66 20 1
66 21 1
66 22 1
66 23 5
66 24 5
66 25 2
66 26 3
66 27 1
66 28 4
66 29 4
66 30 4
66 31 3
66 32 4
66 33 1
66 34 5
66 35 5
66 36 3
66 37 1
66 38 2
66 39 1
66 40 2
66 41 3
66 42 4
66 43 2
66 44 2
66 45 1
66 46 3
66 47 3
66 48 5
66 49 1
66 50 3
66 51 1
66 52 2
66 53 5
66 54 5
66 55 1
66 56 5
66 57 4
66 58 2
66 59 5
66 60 5
66 61 3
66 62 4
66 63 3
66 64 4
66 65 3
67 0 4
67 1 3
67 2 4
67 3 5
67 4 1
67 5 3
67 6 3
67 7 3
67 8 3
67 9 4
67 10 4
67 11 2
67 12 1
67 13 5
67 14 1
67 15 3
67 16 5
67 17 2
67 18 5
67 19 1
67 20 2
67 21 4
67 22 5
67 23 2
67 24 3
67 25 5
67 26 2
67 27 1
67 28 2
67 29 4
67 30 5
67 31 2
67 32 3
67 33 4
67 34 3
67 35 3
67 36 4
67 37 1
67 38 1
67 39 4
67 40 3
67 41 1
67 42 5
67 43 2
67 44 4
67 45 5
67 46 3
67 47 4
67 48 2
67 49 4
67 50 4
67 51 2
67 52 4
67 53 5
67 54 4
67 55 3
67 56 5
67 57 3
67 58 2
67 59 4
67 60 3
67 61 3
67 62 4
67 63 3
67 64 2
67 65 5
67 66 3
68 0 3
68 1 4
68 2 3
68 3 5
68 4 4
68 5 4
68 6 5
68 7 1
68 8 5
68 9 2
68 10 2
68 11 2
68 12 2
68 13 2
68 14 2
68 15 1
68 16 2
68 17 2
68 18 3
68 19 1
68 20 5
68 21 3
68 22 4
68 23 1
68 24 4
68 25 4
68 26 2
68 27 2
68 28 5
68 29 3
68 30 3
68 31 4
68 32 2
68 33 5
68 34 3
68 35 2
68 36 4
68 37 4
68 38 5
68 39 3
68 40 4
68 41 4
68 42 3
68 43 2
68 44 3
68 45 4
68 46 2
68 47 2
68 48 2
68 49 5
68 50 4
68 51 1
68 52 2
68 53 2
68 54 5
68 55 5
68 56 5
68 57 3
68 58 5
68 59 1
68 60 2
68 61 4
68 62 4
68 63 1
68 64 2
68 65 3
68 66 1
68 67 4
69 0 5
69 1 4
69 2 3
69 3 3
69 4 3
69 5 1
69 6 1
69 7 4
69 8 2
69 9 5
69 10 1
69 11 3
69 12 1
69 13 2
69 14 2
69 15 2
69 16 3
69 17 2
69 18 1
69 19 4
69 20 1
69 21 2
69 22 5
69 23 4
69 24 5
69 25 2
69 26 4
69 27 4
69 28 3
69 29 3
69 30 3
69 31 2
69 32 4
69 33 2
69 34 2
69 35 5
69 36 4
69 37 3
69 38 1
69 39 3
69 40 3
69 41 3
69 42 1
69 43 3
69 44 4
69 45 2
69 46 4
69 47 3
69 48 4
69 49 2
69 50 4
69 51 1
69 52 1
69 53 3
69 54 2
69 55 3
69 56 2
69 57 5
69 58 3
69 59 5
69 60 4
69 61 4
69 62 2
69 63 4
69 64 5
69 65 3
69 66 1
69 67 5
69 68 2
